 Run started: Fri, 17 Feb 2023 16:04:30 +0000
 |  D D D D    F F F F F  P P P P     T T T T T    |
 |  D       D  F          P       P       T        |
 |  D       D  F F F F    P P P P         T        |
 |  D       D  F          P               T        |
 |  D D D D    F          P               T        |
 | Welcome to Castep Linear Response (DFPT)        |
 | Copyright (c) 2006 - 2022                       |
 | Please cite the following publications in all   |
 | work arising from your use of CASTEP LR.        |
 | K. Refson, S. J. Clark and P. R. Tulip          |
 | Variational density functional perturbation     |
 | theory for dielectrics and lattice dynamics     |
 | Phys. Rev. B 73(15), 155114 (2006)              |

 Atomic calculation performed for Si: 1s2 2s2 2p6 3s2 3p2

 Converged in 55 iterations to an ae energy of -7859.183 eV

   | Pseudopotential Report - Date of generation 17-02-2023   |
   | Element: Si Ionic charge:  4.00 Level of theory: LDA     |
   | Atomic Solver: Koelling-Harmon                           |
   |               Reference Electronic Structure             |
   |         Orbital         Occupation         Energy        |
   |            3s              2.000           -0.400        |
   |            3p              2.000           -0.153        |
   |                 Pseudopotential Definition               |
   |        Beta     l      e      Rc     scheme   norm       |
   |          1      0   -0.400   1.599     qc      1         |
   |          2      2    0.000   1.599     qc      1         |
   |         loc     1   -0.153   1.599     qc      1         |
   | No charge augmentation                                   |
   | Partial core correction Rc = 1.117                       |
   | "1|1.6|6|7|8|30N:31L:32N"                                |
   |      Author: Chris J. Pickard, Cambridge University      |

 Pseudo atomic calculation performed for Si 3s2 3p2

 Converged in 25 iterations to a total energy of -212.0962 eV
 Calculation parallelised over 108 processes.
 Data is distributed by k-point(108-way)

 ************************************ Title ************************************

 ***************************** General Parameters ******************************

 output verbosity                               : normal  (1)
 write checkpoint data to                       : Si.check
 type of calculation                            : E-field calculation
 stress calculation                             : off
 density difference calculation                 : off
 electron localisation func (ELF) calculation   : off
 Hirshfeld analysis                             : off
 polarisation (Berry phase) analysis            : off
 molecular orbital projected DOS                : off
 deltaSCF calculation                           : off
 unlimited duration calculation
 timing information                             : on
 write extra output files                       : on
 write final potential to formatted file        : off
 write final density to formatted file          : off
 write BibTeX reference list                    : on
 write OTFG pseudopotential files               : on
 write electrostatic potential file             : on
 write bands file                               : on
 checkpoint writing                             : off

 output         length unit                     : A
 output           mass unit                     : amu
 output           time unit                     : ps
 output         charge unit                     : e
 output           spin unit                     : hbar/2
 output         energy unit                     : eV
 output          force unit                     : eV/A
 output       velocity unit                     : A/ps
 output       pressure unit                     : GPa
 output     inv_length unit                     : 1/A
 output      frequency unit                     : cm-1
 output force constant unit                     : eV/A**2
 output         volume unit                     : A**3
 output   IR intensity unit                     : (D/A)**2/amu
 output         dipole unit                     : D
 output         efield unit                     : eV/A/e
 output        entropy unit                     : J/mol/K
 output    efield chi2 unit                     : pm/V

 wavefunctions paging                           : none
 random number generator seed                   :  160436965
 data distribution                              : optimal for this architecture

 *********************** Exchange-Correlation Parameters ***********************

 using functional                               : Local Density Approximation
 relativistic treatment                         : Koelling-Harmon
 DFT+D: Semi-empirical dispersion correction    : off

 ************************* Pseudopotential Parameters **************************

 pseudopotential representation                 : reciprocal space
 <beta|phi> representation                      : reciprocal space
 spin-orbit coupling                            : off

 **************************** Basis Set Parameters *****************************

 plane wave basis set cut-off                   :   350.0000   eV
 size of standard grid                          :     1.7500
 size of   fine   gmax                          :    16.7730   1/A
 largest prime factor in FFT                    :          5
 finite basis set correction                    : none

 **************************** Electronic Parameters ****************************

 number of  electrons                           :  8.000
 net charge of system                           :  0.000
 treating system as non-spin-polarized
 number of bands                                :          4

 ********************* Electronic Minimization Parameters **********************

 Method: Treating system as non-metallic,
         and number of  SD  steps               :          1
         and number of  CG  steps               :          4

 total energy / atom convergence tol.           : 0.2219E-09   eV
 max force / atom convergence tol.              : ignored
 convergence tolerance window                   :          3   cycles
 max. number of SCF cycles                      :         30
 periodic dipole correction                     : NONE

 *********************** Population Analysis Parameters ************************

 Population analysis with cutoff                :  3.000       A
 Population analysis output                     : summary and pdos components

 ***************************** E-Field Parameters ******************************

 E-field convergence tolerance                  : 0.1000E-04   A**3
 DFPT solver method                             : AllBands (Gonze variational method)
 ionic contribution to permittivity             : included
 treating system as a crystal,
 => ignoring 3 lowest modes when calculating ionic  contribution to permittivity
 calculation with frequency spacing             : 0.4556E-05   cm-1
 Q-factor for lineshape broadening              :    50.0000
 calculate non-linear optical properties        : OFF
 max. number of E-field cycles                  :         50
 max. number of E-field CG steps                :          0
 convergence tolerance window                   :          2   cycles
 band convergence tolerance                     : 0.1000E-08   eV

 ******************************* Developer Code ********************************

 gw_convergence_win = 2
 gw_tol = 1.0e-9
 gw_max_cycles = 1
 start_omega = 0.1
 end_omega = 15.1
 num_freq = 301

                                      Unit Cell
        Real Lattice(A)                      Reciprocal Lattice(1/A)
     2.7000000     2.7000000     0.0000000        1.163552835   1.163552835  -1.163552835
     2.7000000     0.0000000     2.7000000        1.163552835  -1.163552835   1.163552835
     0.0000000     2.7000000     2.7000000       -1.163552835   1.163552835   1.163552835

                       Lattice parameters(A)       Cell Angles
                    a =      3.818377          alpha =   60.000000
                    b =      3.818377          beta  =   60.000000
                    c =      3.818377          gamma =   60.000000

                       Current cell volume =            39.366000       A**3
                                   density =             1.426891   AMU/A**3
                                           =             2.369409     g/cm^3

                                     Cell Contents
                         Total number of ions in cell =    2
                      Total number of species in cell =    1
                        Max number of any one species =    2

            x  Element    Atom        Fractional coordinates of atoms  x
            x            Number           u          v          w      x
            x  Si           1         0.000000   0.000000   0.000000   x
            x  Si           2         0.250000   0.250000   0.250000   x

                         No user defined ionic velocities

                                   Details of Species

                               Mass of species in AMU
                                    Si   28.0855000

                          Electric Quadrupole Moment (Barn)
                                    Si    1.0000000 No Isotope Defined

                          Files used for pseudopotentials:
                                    Si 1|1.6|6|7|8|30N:31L:32N

                              k-Points For BZ Sampling
                       MP grid size for SCF calculation is 12 12 12
                            with an offset of   0.000  0.000  0.000
                       Number of kpoints used =           864

                               Symmetry and Constraints

                      Maximum deviation from symmetry =  0.00000         ANG

                      Number of symmetry operations   =           1
                      Number of ionic constraints     =           3
                      Point group of crystal =     1: C1, 1, 1
                      Space group of crystal =   227: Fd-3m, F 4d 2 3 -1d

             Set iprint > 1 for details on symmetry rotations/translations

                         Centre of mass is constrained
             Set iprint > 1 for details of linear ionic constraints

                         Number of cell constraints= 0
                         Cell constraints are:  1 2 3 4 5 6

                         External pressure/stress (GPa)
                          0.00000   0.00000   0.00000
                                    0.00000   0.00000
                                              0.00000

Final energy =  -436.1217458104     eV
(energy not corrected for finite basis set)

  scf kpoint data stored

 Comms strategy in GW module
 Data is distributed by G-vector(1-way) and k-point(108-way) and band(1-way)

Energy Unit:  eV

 +                         GW NSCF Dielectric Response                        +
 + Response calculation at long wavelength                                    +
 +  q-pt = (  0.010000  0.000000  0.000000)                                   +
 + Head of the Frequency Dependent Dielectric Matrix (G=G'=0)                 +
 + Frequency      Re:eps_{GG'}(q,w)      Im:eps_{GG'}(q,w)                    +
 +    0.1000           13.9314            0.0376                              +
 +    0.1500           13.9602            0.0133                              +
 +    0.2000           13.9974            0.0197                              +
 +    0.2500           14.0295            0.0273                              +
 +    0.3000           14.0617            0.0349                              +
 +    0.3500           14.0969            0.0416                              +
 +    0.4000           14.1382            0.0515                              +
 +    0.4500           14.1796            0.0596                              +
 +    0.5000           14.2282            0.0706                              +
 +    0.5500           14.2818            0.0802                              +
 +    0.6000           14.3403            0.0905                              +
 +    0.6500           14.4029            0.1013                              +
 +    0.7000           14.4753            0.1098                              +
 +    0.7500           14.5494            0.1197                              +
 +    0.8000           14.6285            0.1315                              +
 +    0.8500           14.7157            0.1425                              +
 +    0.9000           14.8092            0.1529                              +
 +    0.9500           14.9106            0.1664                              +
 +    1.0000           15.0199            0.1790                              +
 +    1.0500           15.1370            0.1916                              +
 +    1.1000           15.2617            0.2068                              +
 +    1.1500           15.3943            0.2209                              +
 +    1.2000           15.5369            0.2369                              +
 +    1.2500           15.6887            0.2537                              +
 +    1.3000           15.8501            0.2719                              +
 +    1.3500           16.0229            0.2914                              +
 +    1.4000           16.2071            0.3114                              +
 +    1.4500           16.4050            0.3336                              +
 +    1.5000           16.6159            0.3568                              +
 +    1.5500           16.8425            0.3819                              +
 +    1.6000           17.0841            0.4101                              +
 +    1.6500           17.3437            0.4407                              +
 +    1.7000           17.6221            0.4748                              +
 +    1.7500           17.9225            0.5113                              +
 +    1.8000           18.2465            0.5526                              +
 +    1.8500           18.5964            0.5982                              +
 +    1.9000           18.9751            0.6500                              +
 +    1.9500           19.3872            0.7090                              +
 +    2.0000           19.8371            0.7763                              +
 +    2.0500           20.3297            0.8547                              +
 +    2.1000           20.8728            0.9464                              +
 +    2.1500           21.4740            1.0546                              +
 +    2.2000           22.1452            1.1860                              +
 +    2.2500           22.8998            1.3476                              +
 +    2.3000           23.7563            1.5516                              +
 +    2.3500           24.7414            1.8179                              +
 +    2.4000           25.8893            2.1799                              +
 +    2.4500           27.2483            2.6994                              +
 +    2.5000           28.8730            3.5019                              +
 +    2.5500           30.7698            4.8432                              +
 +    2.6000           32.6572            7.1135                              +
 +    2.6500           33.8765           10.3455                              +
 +    2.7000           33.7677           14.3680                              +
 +    2.7500           31.4199           17.5686                              +
 +    2.8000           28.9533           18.5200                              +
 +    2.8500           27.5447           18.6198                              +
 +    2.9000           27.2332           18.5075                              +
 +    2.9500           27.8115           19.4447                              +
 +    3.0000           27.6303           21.4547                              +
 +    3.0500           26.2922           23.3050                              +
[...]
 +   14.4000           -0.3611            0.2526                              +
 +   14.4500           -0.3541            0.2536                              +
 +   14.5000           -0.3498            0.2540                              +
 +   14.5500           -0.3467            0.2516                              +
 +   14.6000           -0.3438            0.2474                              +
 +   14.6500           -0.3401            0.2377                              +
 +   14.7000           -0.3293            0.2272                              +
 +   14.7500           -0.3142            0.2220                              +
 +   14.8000           -0.3039            0.2230                              +
 +   14.8500           -0.2967            0.2192                              +
 +   14.9000           -0.2869            0.2163                              +
 +   14.9500           -0.2783            0.2138                              +
 +   15.0000           -0.2694            0.2113                              +
 +   15.0500           -0.2611            0.2107                              +
 +   15.1000           -0.2568            0.2091                              +

 ************************** Forces **************************
 *               Cartesian components (eV/A)                *
 *                         x            y            z      *
 * Si              1     -0.00020     -0.00020     -0.00020 *
 * Si              2      0.00020      0.00020      0.00020 *

 Pseudo atomic calculation performed for Si 3s2 3p2

 Converged in 25 iterations to a total energy of -212.0962 eV
Charge spilling parameter for spin component 1 = 0.88%

            Orbital Populations
     Ion    Atom   Orbital             Charge
     Si     1      S                    1.358
     Si     1      Px                   0.881
     Si     1      Py                   0.881
     Si     1      Pz                   0.881
     Si     2      S                    1.358
     Si     2      Px                   0.881
     Si     2      Py                   0.881
     Si     2      Pz                   0.881
                           Total:       8.000

     Atomic Populations (Mulliken)
Species          Ion     s       p       d       f      Total   Charge (e)
  Si              1     1.358   2.642   0.000   0.000   4.000    -0.000
  Si              2     1.358   2.642   0.000   0.000   4.000     0.000

                 Bond                   Population      Length (A)
              Si 1 -- Si 2                   2.98        2.33827

 A BibTeX formatted list of references used in this run has been written to
 Si.bib

Initialisation time =     10.89 s
Calculation time    =    964.92 s
Finalisation time   =      0.02 s
Total time          =    975.82 s

Overall parallel efficiency rating: Excellent (90%)

Data was distributed by:-
k-point (108-way); efficiency rating: Excellent (93%)