 Run started: Fri, 17 Feb 2023 16:20:52 +0000
 |  D D D D    F F F F F  P P P P     T T T T T    |
 |  D       D  F          P       P       T        |
 |  D       D  F F F F    P P P P         T        |
 |  D       D  F          P               T        |
 |  D D D D    F          P               T        |
 | Welcome to Castep Linear Response (DFPT)        |
 | Copyright (c) 2006 - 2022                       |
 | Please cite the following publications in all   |
 | work arising from your use of CASTEP LR.        |
 | K. Refson, S. J. Clark and P. R. Tulip          |
 | Variational density functional perturbation     |
 | theory for dielectrics and lattice dynamics     |
 | Phys. Rev. B 73(15), 155114 (2006)              |

 Pseudo atomic calculation performed for Ga 3d10 4s2 4p1

 Converged in 34 iterations to a total energy of -1706.4086 eV

[...]

 Converged in 37 iterations to a total energy of -2452.1008 eV
 Calculation parallelised over 200 processes.
 Data is distributed by k-point(200-way)

 ************************************ Title ************************************

 ***************************** General Parameters ******************************

 output verbosity                               : normal  (1)
 write checkpoint data to                       : gaas.check
 type of calculation                            : E-field calculation
 stress calculation                             : off
 density difference calculation                 : off
 electron localisation func (ELF) calculation   : off
 Hirshfeld analysis                             : off
 polarisation (Berry phase) analysis            : off
 molecular orbital projected DOS                : off
 deltaSCF calculation                           : off
 unlimited duration calculation
 timing information                             : on
 write extra output files                       : on
 write final potential to formatted file        : off
 write final density to formatted file          : off
 write BibTeX reference list                    : on
 write OTFG pseudopotential files               : on
 write electrostatic potential file             : on
 write bands file                               : on
 checkpoint writing                             : off

 output         length unit                     : A
 output           mass unit                     : amu
 output           time unit                     : ps
 output         charge unit                     : e
 output           spin unit                     : hbar/2
 output         energy unit                     : eV
 output          force unit                     : eV/A
 output       velocity unit                     : A/ps
 output       pressure unit                     : GPa
 output     inv_length unit                     : 1/A
 output      frequency unit                     : cm-1
 output force constant unit                     : eV/A**2
 output         volume unit                     : A**3
 output   IR intensity unit                     : (D/A)**2/amu
 output         dipole unit                     : D
 output         efield unit                     : eV/A/e
 output        entropy unit                     : J/mol/K
 output    efield chi2 unit                     : pm/V

 wavefunctions paging                           : none
 random number generator seed                   :  162059603
 data distribution                              : optimal for this architecture

 *********************** Exchange-Correlation Parameters ***********************

 using functional                               : Perdew Burke Ernzerhof
 relativistic treatment                         : Koelling-Harmon
 DFT+D: Semi-empirical dispersion correction    : off

 ************************* Pseudopotential Parameters **************************

 pseudopotential representation                 : reciprocal space
 <beta|phi> representation                      : reciprocal space
 spin-orbit coupling                            : off

 **************************** Basis Set Parameters *****************************

 plane wave basis set cut-off                   :  1200.0000   eV
 size of standard grid                          :     1.7500
 size of   fine   gmax                          :    31.0576   1/A
 largest prime factor in FFT                    :          5
 finite basis set correction                    : none

 **************************** Electronic Parameters ****************************

 number of  electrons                           :  28.00
 net charge of system                           :  0.000
 treating system as non-spin-polarized
 number of bands                                :         14

 ********************* Electronic Minimization Parameters **********************

 Method: Treating system as non-metallic,
         and number of  SD  steps               :          1
         and number of  CG  steps               :          4

 total energy / atom convergence tol.           : 0.1000E-09   eV
 max force / atom convergence tol.              : ignored
 convergence tolerance window                   :          3   cycles
 max. number of SCF cycles                      :        150
 periodic dipole correction                     : NONE

 *********************** Population Analysis Parameters ************************

 Population analysis with cutoff                :  3.000       A
 Population analysis output                     : summary and pdos components

 ***************************** E-Field Parameters ******************************

 E-field convergence tolerance                  : 0.1000E-04   A**3
 DFPT solver method                             : AllBands (Gonze variational method)
 ionic contribution to permittivity             : included
 treating system as a crystal,
 => ignoring 3 lowest modes when calculating ionic  contribution to permittivity
 calculation with frequency spacing             : 0.4556E-05   cm-1
 Q-factor for lineshape broadening              :    50.0000
 calculate non-linear optical properties        : OFF
 max. number of E-field cycles                  :         50
 max. number of E-field CG steps                :          0
 convergence tolerance window                   :          2   cycles
 band convergence tolerance                     : 0.1000E-08   eV

 ******************************* Developer Code ********************************

 gw_convergence_win = 2
 gw_energy_tol = 1.0e-6
 gw_tol = 1.0e-9
 gw_max_cycles = 1
 start_omega = 0.1
 end_omega = 6.1
 num_freq = 121
 write_stat = true

                                      Unit Cell
        Real Lattice(A)                      Reciprocal Lattice(1/A)
     4.0659931     0.0000000     0.0000000        1.545301506  -0.892180240  -0.630866698
     2.0329966     3.5212533     0.0000000        0.000000000   1.784360481  -0.630866698
     2.0329966     1.1737511     3.3198695        0.000000000   0.000000000   1.892600094

                       Lattice parameters(A)       Cell Angles
                    a =      4.065993          alpha =   60.000000
                    b =      4.065993          beta  =   60.000000
                    c =      4.065993          gamma =   60.000000

                       Current cell volume =            47.531873       A**3
                                   density =             3.043108   AMU/A**3
                                           =             5.053199     g/cm^3

                                     Cell Contents
                         Total number of ions in cell =    2
                      Total number of species in cell =    2
                        Max number of any one species =    1

            x  Element    Atom        Fractional coordinates of atoms  x
            x            Number           u          v          w      x
            x  Ga           1         0.000000   0.000000   0.000000   x
            x  As           1         0.750000   0.750000   0.750000   x

                         No user defined ionic velocities

                                   Details of Species

                               Mass of species in AMU
                                    Ga   69.7230000
                                    As   74.9216000

                          Electric Quadrupole Moment (Barn)
                                    Ga    0.1070000 Isotope 71
                                    As    0.3140000 Isotope 75

                          Files used for pseudopotentials:
                                    Ga ga-optgga1.recpot
                                    As as-optgga1.recpot

                              k-Points For BZ Sampling
                       MP grid size for SCF calculation is 20 20 20
                            with an offset of   0.000  0.000  0.000
                       Number of kpoints used =          4000

                               Symmetry and Constraints

                      Maximum deviation from symmetry =  0.00000         ANG

                      Number of symmetry operations   =           1
                      Number of ionic constraints     =           3
                      Point group of crystal =     1: C1, 1, 1
                      Space group of crystal =   216: F-43m, F -4 2 3

             Set iprint > 1 for details on symmetry rotations/translations

                         Centre of mass is constrained
             Set iprint > 1 for details of linear ionic constraints

                         Number of cell constraints= 0
                         Cell constraints are:  1 2 3 4 5 6

                         External pressure/stress (GPa)
                          0.00000   0.00000   0.00000
                                    0.00000   0.00000
                                              0.00000

Final energy =  -4166.815311832     eV
(energy not corrected for finite basis set)

  scf kpoint data stored

 Comms strategy in GW module
 Data is distributed by G-vector(1-way) and k-point(200-way) and band(1-way)

Energy Unit:  eV

----------------------------------------------------------------------- <-- NSCF
loop_iter   1  av_CG_steps 123.0  E_2       0.024281254                 <-- NSCF
----------------------------------------------------------------------- <-- NSCF

1st-order wvfn converged in 1 SCF cycle, we are computing an NSCF response

[...]

----------------------------------------------------------------------- <-- NSCF
loop_iter   1  av_CG_steps 121.3  E_2       0.022284106                 <-- NSCF
----------------------------------------------------------------------- <-- NSCF

1st-order wvfn converged in 1 SCF cycle, we are computing an NSCF response

 +                         GW NSCF Dielectric Response                        +
 + Response calculation at long wavelength                                    +
 +  q-pt = (  0.010000  0.000000  0.000000)                                   +
 + Head of the Frequency Dependent Dielectric Matrix (G=G'=0)                 +
 + Frequency      Re:eps_{GG'}(q,w)      Im:eps_{GG'}(q,w)                    +
 +    0.1000           12.2885            0.0226                              +
 +    0.1500           12.3094            0.0340                              +
 +    0.2000           12.3381            0.0463                              +
 +    0.2500           12.3765            0.0607                              +
 +    0.3000           12.4238            0.0765                              +
 +    0.3500           12.4803            0.0956                              +
 +    0.4000           12.5485            0.1170                              +
 +    0.4500           12.6310            0.1431                              +
 +    0.5000           12.7283            0.1753                              +
 +    0.5500           12.8457            0.2175                              +
 +    0.6000           12.9869            0.2775                              +
 +    0.6500           13.1578            0.3697                              +
 +    0.7000           13.3614            0.5287                              +
 +    0.7500           13.5574            0.8253                              +
 +    0.8000           13.5429            1.2930                              +
 +    0.8500           13.1778            1.5501                              +
 +    0.9000           12.8742            1.4235                              +
 +    0.9500           12.9141            1.1400                              +
 +    1.0000           13.1925            1.0657                              +
 +    1.0500           13.4478            1.2123                              +
 +    1.1000           13.5216            1.4390                              +
 +    1.1500           13.5626            1.4800                              +
 +    1.2000           13.8042            1.6353                              +
 +    1.2500           13.8250            2.0239                              +
 +    1.3000           13.5364            2.1445                              +
 +    1.3500           13.5180            1.9213                              +
 +    1.4000           13.7373            1.8620                              +
 +    1.4500           13.9728            1.8649                              +
 +    1.5000           14.2935            1.9550                              +
 +    1.5500           14.5933            2.2231                              +
 +    1.6000           14.7446            2.4866                              +
 +    1.6500           14.9583            2.7977                              +
 +    1.7000           14.9383            3.2385                              +
 +    1.7500           14.6688            3.3523                              +
 +    1.8000           14.6721            3.0881                              +
 +    1.8500           15.1551            2.8555                              +
 +    1.9000           15.8799            3.0169                              +
 +    1.9500           16.5267            3.5401                              +
 +    2.0000           16.9307            4.2825                              +
 +    2.0500           17.0884            5.0432                              +
 +    2.1000           17.0004            5.6651                              +
 +    2.1500           17.0555            5.9171                              +
 +    2.2000           17.5978            6.3462                              +
 +    2.2500           18.2317            7.3660                              +
 +    2.3000           18.3927            9.0294                              +
 +    2.3500           17.5744           10.6154                              +
 +    2.4000           16.4573           11.5957                              +
 +    2.4500           15.1572           12.2975                              +
 +    2.5000           13.6647           12.1808                              +
 +    2.5500           13.1596           11.4743                              +
 +    2.6000           13.3393           11.4979                              +
 +    2.6500           13.1202           12.2862                              +
 +    2.7000           12.0121           12.8747                              +
 +    2.7500           10.9530           12.7330                              +
 +    2.8000           10.0105           12.4844                              +
 +    2.8500            9.1729           11.6939                              +
 +    2.9000            9.1135           10.7706                              +
 +    2.9500            9.4188           10.4089                              +
 +    3.0000            9.4986           10.3928                              +
 +    3.0500            9.3906           10.4454                              +
[...]
 +    5.4000           -4.2183            9.7373                              +
 +    5.4500           -4.0849            9.3972                              +
 +    5.5000           -3.9658            9.0903                              +
 +    5.5500           -3.8368            8.7580                              +
 +    5.6000           -3.5448            8.4309                              +
 +    5.6500           -3.2108            8.3488                              +
 +    5.7000           -3.0118            8.3139                              +
 +    5.7500           -2.7762            8.3017                              +
 +    5.8000           -2.5571            8.4349                              +
 +    5.8500           -2.4730            8.6561                              +
 +    5.9000           -2.4648            8.9013                              +
 +    5.9500           -2.5816            9.3032                              +
 +    6.0000           -3.1139            9.6968                              +
 +    6.0500           -3.9278            9.6530                              +
 +    6.1000           -4.5389            9.1482                              +

 ************************** Forces **************************
 *               Cartesian components (eV/A)                *
 *                         x            y            z      *
 * Ga              1      0.00006     -0.00000      0.00001 *
 * As              1     -0.00006      0.00000     -0.00001 *

[...]

 Converged in 34 iterations to a total energy of -1706.4086 eV

 Pseudo atomic calculation performed for As 3d10 4s2 4p3

 Converged in 37 iterations to a total energy of -2452.1008 eV
Charge spilling parameter for spin component 1 = 0.07%

            Orbital Populations
     Ion    Atom   Orbital             Charge
     Ga     1      Dzz                  1.998
     Ga     1      Dzy                  1.999
     Ga     1      Dzx                  1.999
     Ga     1      Dxx-yy               1.999
     Ga     1      Dxy                  1.999
     Ga     1      S                    1.558
     Ga     1      Px                   0.562
     Ga     1      Py                   0.562
     Ga     1      Pz                   0.562
     Ga     1      S                   -0.494
     As     1      Dzz                  2.000
     As     1      Dzy                  2.000
     As     1      Dzx                  2.000
     As     1      Dxx-yy               2.000
     As     1      Dxy                  2.000
     As     1      S                    1.590
     As     1      Px                   1.226
     As     1      Py                   1.226
     As     1      Pz                   1.226
     As     1      S                   -0.009
                           Total:      28.000

     Atomic Populations (Mulliken)
Species          Ion     s       p       d       f      Total   Charge (e)
  Ga              1     1.064   1.685   9.994   0.000  12.744     0.256
  As              1     1.581   3.677   9.999   0.000  15.256    -0.256

                 Bond                   Population      Length (A)
              Ga 1 -- As 1                   1.95        2.48990

 A BibTeX formatted list of references used in this run has been written to
 gaas.bib

Initialisation time =     10.46 s
Calculation time    =  42948.85 s
Finalisation time   =      0.18 s
Total time          =  42959.49 s

Overall parallel efficiency rating: Excellent (90%)

Data was distributed by:-
k-point (200-way); efficiency rating: Excellent (91%)