 Run started: Sat, 18 Feb 2023 04:17:01 +0000
 |  D D D D    F F F F F  P P P P     T T T T T    |
 |  D       D  F          P       P       T        |
 |  D       D  F F F F    P P P P         T        |
 |  D       D  F          P               T        |
 |  D D D D    F          P               T        |
 | Welcome to Castep Linear Response (DFPT)        |
 | Copyright (c) 2006 - 2022                       |
 | Please cite the following publications in all   |
 | work arising from your use of CASTEP LR.        |
 | K. Refson, S. J. Clark and P. R. Tulip          |
 | Variational density functional perturbation     |
 | theory for dielectrics and lattice dynamics     |
 | Phys. Rev. B 73(15), 155114 (2006)              |

 Pseudo atomic calculation performed for O 2s2 2p4

 Converged in 39 iterations to a total energy of -423.8698 eV

 Pseudo atomic calculation performed for Zn 3d10 4s2

 Converged in 32 iterations to a total energy of -1411.5881 eV
 Calculation parallelised over 200 processes.
 Data is distributed by k-point(200-way)

 ************************************ Title ************************************

 ***************************** General Parameters ******************************

 output verbosity                               : normal  (1)
 write checkpoint data to                       : ZnO.check
 type of calculation                            : E-field calculation
 stress calculation                             : off
 density difference calculation                 : off
 electron localisation func (ELF) calculation   : off
 Hirshfeld analysis                             : off
 polarisation (Berry phase) analysis            : off
 molecular orbital projected DOS                : off
 deltaSCF calculation                           : off
 unlimited duration calculation
 timing information                             : on
 write extra output files                       : on
 write final potential to formatted file        : off
 write final density to formatted file          : off
 write BibTeX reference list                    : on
 write OTFG pseudopotential files               : on
 write electrostatic potential file             : on
 write bands file                               : on
 checkpoint writing                             : off

 output         length unit                     : A
 output           mass unit                     : amu
 output           time unit                     : ps
 output         charge unit                     : e
 output           spin unit                     : hbar/2
 output         energy unit                     : eV
 output          force unit                     : eV/A
 output       velocity unit                     : A/ps
 output       pressure unit                     : GPa
 output     inv_length unit                     : 1/A
 output      frequency unit                     : cm-1
 output force constant unit                     : eV/A**2
 output         volume unit                     : A**3
 output   IR intensity unit                     : (D/A)**2/amu
 output         dipole unit                     : D
 output         efield unit                     : eV/A/e
 output        entropy unit                     : J/mol/K
 output    efield chi2 unit                     : pm/V

 wavefunctions paging                           : none
 random number generator seed                   :   41708494
 data distribution                              : optimal for this architecture

 *********************** Exchange-Correlation Parameters ***********************

 using functional                               : Perdew Burke Ernzerhof
 relativistic treatment                         : Koelling-Harmon
 DFT+D: Semi-empirical dispersion correction    : off

 ************************* Pseudopotential Parameters **************************

 pseudopotential representation                 : reciprocal space
 <beta|phi> representation                      : reciprocal space
 spin-orbit coupling                            : off

 **************************** Basis Set Parameters *****************************

 plane wave basis set cut-off                   :   700.0000   eV
 size of standard grid                          :     1.7500
 size of   fine   gmax                          :    23.7206   1/A
 largest prime factor in FFT                    :          5
 finite basis set correction                    : none

 **************************** Electronic Parameters ****************************

 number of  electrons                           :  36.00
 net charge of system                           :  0.000
 treating system as non-spin-polarized
 number of bands                                :         18

 ********************* Electronic Minimization Parameters **********************

 Method: Treating system as non-metallic,
         and number of  SD  steps               :          1
         and number of  CG  steps               :          4

 total energy / atom convergence tol.           : 0.1000E-09   eV
 max force / atom convergence tol.              : ignored
 convergence tolerance window                   :          3   cycles
 max. number of SCF cycles                      :         80
 periodic dipole correction                     : NONE

 *********************** Population Analysis Parameters ************************

 Population analysis with cutoff                :  3.000       A
 Population analysis output                     : summary and pdos components

 ***************************** E-Field Parameters ******************************

 E-field convergence tolerance                  : 0.1000E-04   A**3
 DFPT solver method                             : AllBands (Gonze variational method)
 ionic contribution to permittivity             : included
 treating system as a crystal,
 => ignoring 3 lowest modes when calculating ionic  contribution to permittivity
 calculation with frequency spacing             : 0.4556E-05   cm-1
 Q-factor for lineshape broadening              :    50.0000
 calculate non-linear optical properties        : OFF
 max. number of E-field cycles                  :         50
 max. number of E-field CG steps                :          0
 convergence tolerance window                   :          2   cycles
 band convergence tolerance                     : 0.1000E-08   eV

 ******************************* Developer Code ********************************

 gw_convergence_win = 2
 gw_energy_tol = 1.0e-6
 gw_tol = 1.0e-6
 gw_max_cycles = 1
 start_omega = 0.1
 end_omega = 10.1
 num_freq = 101
 write_stat : true

                                      Unit Cell
        Real Lattice(A)                      Reciprocal Lattice(1/A)
     3.2891025     0.0000000     0.0000000        1.910303904   1.102914473   0.000000000
    -1.6445512     2.8484463     0.0000000        0.000000000   2.205828946   0.000000000
     0.0000000     0.0000000     5.3068210        0.000000000   0.000000000   1.183982898

                       Lattice parameters(A)       Cell Angles
                    a =      3.289102          alpha =   90.000000
                    b =      3.289102          beta  =   90.000000
                    c =      5.306821          gamma =  120.000000

                       Current cell volume =            49.718713       A**3
                                   density =             3.273995   AMU/A**3
                                           =             5.436596     g/cm^3

                                     Cell Contents
                         Total number of ions in cell =    4
                      Total number of species in cell =    2
                        Max number of any one species =    2

            x  Element    Atom        Fractional coordinates of atoms  x
            x            Number           u          v          w      x
            x  O            1         0.333333   0.666667   0.379762   x
            x  O            2         0.666667   0.333333   0.879762   x
            x  Zn           1         0.333333   0.666667   0.000548   x
            x  Zn           2         0.666667   0.333333   0.500548   x

                         No user defined ionic velocities

                                   Details of Species

                               Mass of species in AMU
                                    O   15.9994000
                                    Zn   65.3900000

                          Electric Quadrupole Moment (Barn)
                                    O   -0.0255800 Isotope 17
                                    Zn    0.1500000 Isotope 67

                          Files used for pseudopotentials:
                                    O o-optgga1.recpot
                                    Zn zn-optgga1.recpot

                              k-Points For BZ Sampling
                       MP grid size for SCF calculation is 20 20 16
                            with an offset of   0.000  0.000  0.000
                       Number of kpoints used =          3200

                               Symmetry and Constraints

                      Maximum deviation from symmetry =  0.00000         ANG

                      Number of symmetry operations   =           1
                      Number of ionic constraints     =           3
                      Point group of crystal =     1: C1, 1, 1
                      Space group of crystal =   186: P6_3mc, P 6c -2c

             Set iprint > 1 for details on symmetry rotations/translations

                         Centre of mass is constrained
             Set iprint > 1 for details of linear ionic constraints

                         Number of cell constraints= 0
                         Cell constraints are:  1 2 3 4 5 6

                         External pressure/stress (GPa)
                          0.00000   0.00000   0.00000
                                    0.00000   0.00000
                                              0.00000

Final energy =  -3690.256986185     eV
(energy not corrected for finite basis set)

  scf kpoint data stored

 Comms strategy in GW module
 Data is distributed by G-vector(1-way) and k-point(200-way) and band(1-way)

Energy Unit:  eV

----------------------------------------------------------------------- <-- NSCF
loop_iter   1  av_CG_steps  94.4  E_2       0.003994656                 <-- NSCF
----------------------------------------------------------------------- <-- NSCF

1st-order wvfn converged in 1 SCF cycle, we are computing an NSCF response

[...]

----------------------------------------------------------------------- <-- NSCF
loop_iter   1  av_CG_steps 192.5  E_2       0.007348525                 <-- NSCF
----------------------------------------------------------------------- <-- NSCF

1st-order wvfn converged in 1 SCF cycle, we are computing an NSCF response

 +                         GW NSCF Dielectric Response                        +
 + Response calculation at long wavelength                                    +
 +  q-pt = (  0.010000  0.000000  0.000000)                                   +
 + Head of the Frequency Dependent Dielectric Matrix (G=G'=0)                 +
 + Frequency      Re:eps_{GG'}(q,w)      Im:eps_{GG'}(q,w)                    +
 +    0.1000            4.7984           -0.0088                              +
 +    0.2000            4.7955            0.0150                              +
 +    0.3000            4.7850            0.0123                              +
 +    0.4000            4.7838            0.0186                              +
 +    0.5000            4.8298            0.0326                              +
 +    0.6000            4.8777            0.0442                              +
 +    0.7000            4.9612            0.0516                              +
 +    0.8000            5.1141            0.0922                              +
 +    0.9000            5.2652            0.1549                              +
 +    1.0000            5.4953            0.2801                              +
 +    1.1000            5.6582            0.6941                              +
 +    1.2000            5.3615            0.9142                              +
 +    1.3000            5.4756            1.0430                              +
 +    1.4000            5.2369            1.3327                              +
 +    1.5000            5.0351            1.3388                              +
 +    1.6000            5.0087            1.4569                              +
 +    1.7000            4.7144            1.4085                              +
 +    1.8000            4.7700            1.2746                              +
 +    1.9000            4.7861            1.4641                              +
 +    2.0000            4.6198            1.5789                              +
 +    2.1000            4.3610            1.4635                              +
 +    2.2000            4.4182            1.3884                              +
 +    2.3000            4.3347            1.3731                              +
 +    2.4000            4.4366            1.3249                              +
 +    2.5000            4.3990            1.4799                              +
 +    2.6000            4.2229            1.5518                              +
 +    2.7000            4.1053            1.3920                              +
 +    2.8000            4.1576            1.2983                              +
 +    2.9000            4.2533            1.3266                              +
 +    3.0000            4.2426            1.4071                              +
 +    3.1000            4.1223            1.4400                              +
 +    3.2000            4.0989            1.3418                              +
 +    3.3000            4.1819            1.4094                              +
 +    3.4000            4.0277            1.4040                              +
 +    3.5000            4.0341            1.3151                              +
 +    3.6000            4.0846            1.2462                              +
 +    3.7000            4.2526            1.3359                              +
 +    3.8000            4.1245            1.5006                              +
 +    3.9000            4.0225            1.4453                              +
 +    4.0000            3.9857            1.3498                              +
 +    4.1000            4.1050            1.2952                              +
 +    4.2000            4.1137            1.4308                              +
 +    4.3000            4.0678            1.3558                              +
 +    4.4000            4.1607            1.3815                              +
 +    4.5000            4.1731            1.4358                              +
 +    4.6000            4.1547            1.5448                              +
 +    4.7000            4.0432            1.5036                              +
 +    4.8000            4.0402            1.4694                              +
 +    4.9000            4.1140            1.3803                              +
 +    5.0000            4.2615            1.4688                              +
 +    5.1000            4.2321            1.6024                              +
 +    5.2000            4.1866            1.6303                              +
 +    5.3000            4.2109            1.6276                              +
 +    5.4000            4.2171            1.6896                              +
 +    5.5000            4.1856            1.7512                              +
 +    5.6000            4.1974            1.7018                              +
 +    5.7000            4.2690            1.7309                              +
 +    5.8000            4.4026            1.7896                              +
 +    5.9000            4.4390            2.0591                              +
 +    6.0000            4.2783            2.1554                              +
[...]
 +    8.7000            3.6271            2.2292                              +
 +    8.8000            3.7497            2.2979                              +
 +    8.9000            3.8035            2.4649                              +
 +    9.0000            3.7695            2.5405                              +
 +    9.1000            3.7945            2.5856                              +
 +    9.2000            3.8388            2.6368                              +
 +    9.3000            3.9338            2.6911                              +
 +    9.4000            4.0543            2.8335                              +
 +    9.5000            4.1153            3.0127                              +
 +    9.6000            4.2386            3.2171                              +
 +    9.7000            4.2973            3.6092                              +
 +    9.8000            4.1151            3.9975                              +
 +    9.9000            3.8371            4.2890                              +
 +   10.0000            3.5493            4.3828                              +
 +   10.1000            3.3306            4.5229                              +

 ************************** Forces **************************
 *               Cartesian components (eV/A)                *
 *                         x            y            z      *
 * O               1     -0.00001      0.00001      0.00682 *
 * O               2      0.00001     -0.00001     -0.00145 *
 * Zn              1     -0.00005     -0.00005      0.02011 *
 * Zn              2      0.00005      0.00005     -0.02548 *

 Pseudo atomic calculation performed for O 2s2 2p4

 Converged in 39 iterations to a total energy of -423.8698 eV

 Pseudo atomic calculation performed for Zn 3d10 4s2

 Converged in 32 iterations to a total energy of -1411.5881 eV
Charge spilling parameter for spin component 1 = 0.12%

            Orbital Populations
     Ion    Atom   Orbital             Charge
      O     1      S                    1.856
      O     1      Px                   1.672
      O     1      Py                   1.672
      O     1      Pz                   1.673
      O     2      S                    1.856
      O     2      Px                   1.672
      O     2      Py                   1.672
      O     2      Pz                   1.673
     Zn     1      Dzz                  1.992
     Zn     1      Dzy                  1.997
     Zn     1      Dzx                  1.997
     Zn     1      Dxx-yy               1.994
     Zn     1      Dxy                  1.994
     Zn     1      S                    0.839
     Zn     1      Px                   0.233
     Zn     1      Py                   0.233
     Zn     1      Pz                   0.233
     Zn     1      S                   -0.385
     Zn     2      Dzz                  1.992
     Zn     2      Dzy                  1.997
     Zn     2      Dzx                  1.997
     Zn     2      Dxx-yy               1.994
     Zn     2      Dxy                  1.994
     Zn     2      S                    0.839
     Zn     2      Px                   0.233
     Zn     2      Py                   0.233
     Zn     2      Pz                   0.233
     Zn     2      S                   -0.385
                           Total:      36.000

     Atomic Populations (Mulliken)
Species          Ion     s       p       d       f      Total   Charge (e)
  O               1     1.856   5.017   0.000   0.000   6.873    -0.873
  O               2     1.856   5.017   0.000   0.000   6.873    -0.873
  Zn              1     0.454   0.698   9.975   0.000  11.127     0.873
  Zn              2     0.454   0.698   9.975   0.000  11.127     0.873

                 Bond                   Population      Length (A)
               O 2 -- Zn 1                   1.08        2.00423
               O 1 -- Zn 2                   1.08        2.00423
               O 1 -- Zn 1                   0.16        2.01242
               O 2 -- Zn 2                   0.16        2.01242

 A BibTeX formatted list of references used in this run has been written to
 ZnO.bib

Initialisation time =      8.28 s
Calculation time    =  10884.04 s
Finalisation time   =      0.13 s
Total time          =  10892.46 s

Overall parallel efficiency rating: Excellent (92%)

Data was distributed by:-
k-point (200-way); efficiency rating: Excellent (93%)